(set-info :smt-lib-version 2.6)
(set-logic QF_UFLRA)
(set-info :source |
MathSat group

|)
(set-info :category "random")
(set-info :status sat)
(declare-fun x0 () Real)
(declare-fun x1 () Real)
(declare-fun x2 () Real)
(declare-fun x3 () Real)
(declare-fun x4 () Real)
(declare-fun x5 () Real)
(declare-fun x6 () Real)
(declare-fun x7 () Real)
(declare-fun x8 () Real)
(declare-fun x9 () Real)
(declare-fun x10 () Real)
(declare-fun x11 () Real)
(declare-fun x12 () Real)
(declare-fun x13 () Real)
(declare-fun x14 () Real)
(declare-fun x15 () Real)
(declare-fun x16 () Real)
(declare-fun x17 () Real)
(declare-fun x18 () Real)
(declare-fun x19 () Real)
(declare-fun x20 () Real)
(declare-fun x21 () Real)
(declare-fun x22 () Real)
(declare-fun x23 () Real)
(declare-fun x24 () Real)
(declare-fun x25 () Real)
(declare-fun x26 () Real)
(declare-fun x27 () Real)
(declare-fun x28 () Real)
(declare-fun x29 () Real)
(declare-fun x30 () Real)
(declare-fun x31 () Real)
(declare-fun x32 () Real)
(declare-fun x33 () Real)
(declare-fun x34 () Real)
(declare-fun x35 () Real)
(declare-fun x36 () Real)
(declare-fun x37 () Real)
(declare-fun x38 () Real)
(declare-fun x39 () Real)
(declare-fun f0_1 (Real) Real)
(declare-fun f0_2 (Real Real) Real)
(declare-fun f0_3 (Real Real Real) Real)
(declare-fun f0_4 (Real Real Real Real) Real)
(declare-fun P0 () Bool)
(declare-fun P1 () Bool)
(declare-fun P2 () Bool)
(declare-fun P3 () Bool)
(declare-fun P4 () Bool)
(declare-fun P5 () Bool)
(declare-fun P6 () Bool)
(declare-fun P7 () Bool)
(declare-fun P8 () Bool)
(declare-fun P9 () Bool)
(declare-fun P10 () Bool)
(declare-fun P11 () Bool)
(declare-fun P12 () Bool)
(declare-fun P13 () Bool)
(declare-fun P14 () Bool)
(declare-fun P15 () Bool)
(declare-fun P16 () Bool)
(declare-fun P17 () Bool)
(declare-fun P18 () Bool)
(declare-fun P19 () Bool)
(declare-fun P20 () Bool)
(declare-fun P21 () Bool)
(declare-fun P22 () Bool)
(declare-fun P23 () Bool)
(declare-fun P24 () Bool)
(declare-fun P25 () Bool)
(declare-fun P26 () Bool)
(declare-fun P27 () Bool)
(declare-fun P28 () Bool)
(declare-fun P29 () Bool)
(declare-fun P30 () Bool)
(declare-fun P31 () Bool)
(declare-fun P32 () Bool)
(declare-fun P33 () Bool)
(declare-fun P34 () Bool)
(declare-fun P35 () Bool)
(declare-fun P36 () Bool)
(declare-fun P37 () Bool)
(declare-fun P38 () Bool)
(declare-fun P39 () Bool)
(assert (let ((?v_100 (< (- (- (* 17 x24) (* 17 x13)) (* 26 x11)) 17)) (?v_98 (* 53 x29)) (?v_144 (<= (- (- (* 39 x39) (* 14 x11)) (* 37 x33)) 19)) (?v_28 (<= (+ (- (* 52 x11) (* 20 x15)) (* 49 x2)) 23)) (?v_33 (* 29 x1))) (let ((?v_104 (<= (+ (- (* 16 x0) ?v_33) (* 51 x15)) 36)) (?v_62 (<= (- (- (* 28 x31) (* 12 x25)) (* 34 x31)) 43)) (?v_149 (distinct (f0_2 x18 x21) (f0_1 x29))) (?v_83 (f0_2 x1 x25))) (let ((?v_123 (= (f0_2 x34 x34) ?v_83)) (?v_137 (= x13 x21)) (?v_82 (distinct (f0_2 x22 x28) x36)) (?v_164 (distinct (f0_2 x12 x23) x12)) (?v_34 (distinct x20 (f0_2 x20 x35))) (?v_46 (distinct (f0_2 x2 x14) (f0_2 x5 x23))) (?v_60 (f0_1 x9)) (?v_95 (f0_1 x17))) (let ((?v_124 (= ?v_60 ?v_95)) (?v_35 (distinct (f0_2 x25 x14) (f0_1 x12))) (?v_171 (= (f0_2 x23 x14) x8)) (?v_18 (= (f0_1 x2) (f0_2 x31 x30))) (?v_64 (distinct ?v_60 (f0_2 x36 x32))) (?v_105 (distinct (f0_1 x24) (f0_2 x25 x2))) (?v_90 (= (f0_2 x23 x38) (f0_2 x34 x15))) (?v_66 (= x17 ?v_95)) (?v_84 (= ?v_60 (f0_1 x7))) (?v_78 (distinct (f0_2 x27 x3) x5)) (?v_14 (f0_1 x13))) (let ((?v_6 (distinct x27 ?v_14)) (?v_169 (= x13 ?v_14)) (?v_47 (distinct (f0_2 x32 x28) x6)) (?v_24 (f0_1 x10))) (let ((?v_91 (= (f0_2 x4 x1) ?v_24)) (?v_40 (= (f0_2 x38 x17) (f0_1 x35))) (?v_7 (= x15 x5)) (?v_26 (distinct x0 (f0_1 x20))) (?v_51 (= (f0_1 x11) (f0_1 x30))) (?v_49 (= (f0_2 x17 x3) x20)) (?v_178 (= x27 x32)) (?v_114 (distinct (f0_1 x32) x35)) (?v_56 (= (f0_2 x33 x17) x26)) (?v_9 (distinct ?v_24 (f0_2 x20 x3))) (?v_16 (distinct (f0_1 x25) x33)) (?v_92 (distinct (f0_2 x20 x17) (f0_2 x3 x10))) (?v_93 (= (f0_2 x33 x13) (f0_2 x18 x34))) (?v_20 (distinct (f0_2 x18 x35) (f0_2 x19 x0))) (?v_69 (= (f0_2 x37 x5) ?v_83)) (?v_8 (distinct x0 (f0_1 x21))) (?v_146 (distinct x26 x26)) (?v_22 (distinct (f0_2 x3 x25) (f0_2 x9 x3))) (?v_23 (distinct x30 x12)) (?v_126 (= x1 (f0_1 x0))) (?v_21 (not P2)) (?v_71 (not P6)) (?v_2 (not P10)) (?v_57 (not P11)) (?v_1 (not ?v_6)) (?v_154 (not ?v_144))) (let ((?v_167 (not ?v_26)) (?v_65 (not ?v_49)) (?v_192 (not ?v_20)) (?v_4 (not P17)) (?v_17 (not ?v_7)) (?v_188 (not P0)) (?v_63 (not ?v_126)) (?v_94 (not P18)) (?v_181 (not P33)) (?v_97 (not ?v_8)) (?v_59 (not ?v_51)) (?v_125 (not P21)) (?v_12 (not ?v_9)) (?v_50 (not ?v_23)) (?v_42 (not ?v_169)) (?v_147 (not ?v_47)) (?v_31 (not ?v_69)) (?v_202 (not ?v_104)) (?v_29 (not P8)) (?v_45 (not P14)) (?v_121 (not P13)) (?v_119 (not P28)) (?v_175 (not ?v_92)) (?v_180 (not P38)) (?v_68 (not ?v_18)) (?v_159 (not ?v_22)) (?v_194 (not ?v_91)) (?v_32 (not P5)) (?v_44 (not P29)) (?v_52 (not P24)) (?v_101 (not ?v_34)) (?v_116 (not P16)) (?v_58 (not ?v_149)) (?v_86 (not ?v_16)) (?v_72 (not P34)) (?v_131 (not ?v_82)) (?v_148 (not ?v_40)) (?v_166 (not P25)) (?v_87 (not P27)) (?v_107 (not P1)) (?v_143 (not ?v_56)) (?v_77 (not P19)) (?v_76 (not P35)) (?v_74 (not ?v_62)) (?v_73 (not ?v_66)) (?v_117 (not ?v_137)) (?v_134 (not P15)) (?v_163 (not P22)) (?v_118 (not ?v_35)) (?v_111 (not ?v_123)) (?v_103 (not ?v_93)) (?v_102 (not ?v_90)) (?v_106 (not P30)) (?v_156 (not ?v_124)) (?v_179 (not P23)) (?v_168 (not ?v_100)) (?v_139 (not P37)) (?v_135 (not P32)) (?v_140 (not ?v_64)) (?v_115 (not P7)) (?v_136 (not ?v_114)) (?v_170 (not P12)) (?v_130 (not P26)) (?v_153 (not ?v_28)) (?v_145 (not P9)) (?v_165 (not ?v_46)) (?v_201 (not P20)) (?v_160 (not ?v_105)) (?v_162 (not ?v_84)) (?v_176 (not ?v_164)) (?v_196 (not ?v_146)) (?v_191 (not P4)) (?v_174 (not ?v_171)) (?v_183 (not P39)) (?v_186 (not P31)) (?v_193 (not P3)) (?v_190 (not P36)) (?v_96 (<= (- (* 7 x13) (* 13 x34)) 30))) (let ((?v_10 (not ?v_96)) (?v_37 (< (+ (- (* 17 x0) (* 32 x20)) (* 13 x1)) (- 45)))) (let ((?v_80 (not ?v_37)) (?v_53 (< (- (- (* 51 x22) 0) (* 14 x18)) (- 19)))) (let ((?v_0 (not ?v_53)) (?v_27 (<= (+ (* (- 42) x14) (* 19 x30) (* 32 x5)) (- 25)))) (let ((?v_3 (not ?v_27)) (?v_41 (<= (+ (- (* (- 35) x25) (* 27 x4)) (* 42 x32)) (- 15))) (?v_5 (<= (+ (* (- 26) x37) (* 32 x38) ?v_98) (- 59))) (?v_43 (<= (- (+ (* 26 x5) (* 45 x33)) (* 54 x11)) (- 48))) (?v_30 (distinct (+ (- (* 52 x13) (* 39 x30)) (* 36 x16)) (- 36))) (?v_38 (<= (+ (- (* 38 x33) x9) (* 26 x18)) (- 10))) (?v_48 (distinct (- (- (* 46 x29) (* 13 x19)) (* 4 x29)) (- 5))) (?v_128 (<= (+ x21 (* 23 x32) (* 32 x22)) (- 51)))) (let ((?v_13 (not ?v_128)) (?v_11 (< (- (- 0 (* 38 x28)) (* 12 x33)) (- 8))) (?v_19 (< (+ (* 4 x1) (* 35 x1) (* 32 x19)) (- 29)))) (let ((?v_15 (not ?v_19)) (?v_85 (<= (- (- (* 40 x18) (* 15 x14)) (* 8 x25)) (- 54)))) (let ((?v_195 (not ?v_85)) (?v_36 (not ?v_11)) (?v_25 (< (+ (* 5 x31) (* 40 x29) (* 29 x10)) (- 57)))) (let ((?v_138 (not ?v_25)) (?v_79 (< (- (+ (* (- 26) x28) (* 13 x17)) (* 8 x5)) (- 7)))) (let ((?v_113 (not ?v_79)) (?v_127 (< (- (- (* 54 x21) (* 47 x33)) (* 36 x27)) (- 50))) (?v_75 (= (- (- (* 16 x3) (* 51 x4)) (* 37 x36)) (- 17)))) (let ((?v_142 (not ?v_75)) (?v_187 (< (+ (* 15 x38) (* 38 x5) (* 24 x17)) (- 9))) (?v_129 (<= (- (- 0 (* 53 x36)) (* 55 x10)) (- 50))) (?v_70 (<= (+ (- (* (- 13) x12) (* 5 x10)) (* 33 x27)) (- 33))) (?v_54 (< (- (+ (* (- 47) x14) (* 39 x8)) (* 49 x38)) (- 2)))) (let ((?v_189 (not ?v_54)) (?v_182 (< (+ (* (- 26) x11) (* 49 x9) (* 40 x28)) (- 29)))) (let ((?v_39 (not ?v_182)) (?v_110 (<= (+ (- (* (- 43) x8) (* 13 x33)) (* 33 x20)) (- 33)))) (let ((?v_67 (not ?v_110)) (?v_109 (< (+ (* (- 21) x35) (* 2 x21) (* 19 x23)) 19))) (let ((?v_88 (not ?v_109)) (?v_55 (<= (- (+ (* (- 6) x11) ?v_33) (* 11 x33)) 1)) (?v_152 (< (+ (- (* (- 50) x25) (* 9 x37)) (* 4 x14)) (- 33)))) (let ((?v_151 (not ?v_152)) (?v_89 (not ?v_38)) (?v_157 (not ?v_41)) (?v_61 (not ?v_43)) (?v_184 (not ?v_48)) (?v_120 (<= (+ (- (* (- 38) x14) (* 30 x16)) (* 29 x21)) 37)) (?v_122 (not ?v_5)) (?v_99 (<= (+ (* 20 x2) (* 12 x22) (* 47 x8)) (- 3)))) (let ((?v_81 (not ?v_99)) (?v_185 (not ?v_70)) (?v_108 (<= (- (+ (* 25 x6) (* 36 x3)) (* 23 x38)) (- 36)))) (let ((?v_158 (not ?v_108)) (?v_197 (<= (- (- (* 42 x24) (* 54 x33)) (* 16 x17)) (- 28)))) (let ((?v_141 (not ?v_197)) (?v_150 (<= (- (+ (* (- 8) x21) (* 45 x31)) (* 28 x28)) (- 4)))) (let ((?v_133 (not ?v_150)) (?v_155 (< (- (- (* (- 20) x32) ?v_98) (* 5 x9)) 28))) (let ((?v_112 (not ?v_155)) (?v_132 (<= (- (+ (* 13 x29) (* 43 x12)) (* 6 x7)) (- 49))) (?v_177 (not ?v_120)) (?v_173 (not ?v_129))) (let ((?v_172 (not ?v_132)) (?v_161 (<= (- (+ (* (- 16) x31) (* 14 x20)) (* 53 x39)) (- 53)))) (let ((?v_199 (not ?v_161)) (?v_198 (not ?v_30)) (?v_200 (not ?v_187)) (?v_203 (not ?v_127))) (and (and (and (and (and (and (and (and (and (and (and (and (and (and (and (and (and (and (and (and (and (and (and (and (and (and (and (and (and (and (and (and (and (and (and (and (and (and (and (and (and (and (and (and (and (and (and (and (and (and (and (and (and (and (and (and (and (and (and (and (and (and (and (and (and (and (and (and (and (and (and (and (and (and (and (and (and (and (and (and (and (and (and (and (and (and (and (and (and (and (and (and (and (and (and (and (and (and (and (and (and (and (and (and (and (and (and (and (and (and (and (and (and (and (and (and (and (and (and (and (and (and (and (and (and (and (and (and (and (and (and (and (and (and (and (and (and (and (and (and (and (and (and (and (and (and (and (and (and (and (and (and (and (and (and (and (and (and (and (and (and (and (and (and (and (and (and (and (and (and (and (and (and (and (and (and (and (and (and (and (and (and (and (and (and (and (and (and (and (and (and (and (and (and (and (and (and (and (and (and (and (and (and (and (and (and (and (and (and (and (and (and (and (and (and (and (and (and (and (and (and (and (and (and (and (and (and (and (and (and (and (and (and (and (and (and (and (and (and (and (and (and (and (and (and (and (and (and (and (and (and (and (and (and (and (and (and (and (and (and (and (and (and (and (and (and (and (and (and (and (and (and (and (and (and (and (and (and (and (and (and (and (and (and (and (and (and (and (and (and (and (and (and (and (and (and (and (and (and (and (and (and (and (and (and (and (and (and (and (and (and (and (and (and (and (and (and (and (and (and (and (and (and (and (and (and (and (and (and (and (and (and (and (and (and (and (and (and (and (and (and (and (and (and (and (and (and (and (and (and (and (and (and (and (and (and (and (and (and (and (and (and (and (and (and (and (and (and (and (and (and (and (and (and (and (and (and (and (and (and (and (and (and (and (and (and (and (and (and (and (and (and (and (and (and (and (and (and (and (and (and (and (and (and (and (and (and (and (and (and (and (and (and (and (and (and (and (and (and (and (and (and (and (and (and (and (and (and (and (and (and (and (and (and (and (and (and (and (and (and (and (and (and (and (and (and (and (and (and (and (and (and (and (and (and (and (and (and (and (and (and (and (and (and (and (and (and (and (and (and (and (and (and (and (and (and (and (and (and (or (or P33 ?v_80) ?v_21) (or (or P33 ?v_71) ?v_2)) (or (or ?v_0 ?v_57) ?v_1)) (or (or ?v_154 ?v_167) ?v_3)) (or (or ?v_78 ?v_65) ?v_0)) (or (or ?v_1 ?v_41) ?v_192)) (or (or ?v_2 ?v_4) ?v_17)) (or (or ?v_188 ?v_63) ?v_164)) (or (or ?v_5 ?v_94) P38)) (or (or ?v_181 P16) ?v_43)) (or (or ?v_18 ?v_3) ?v_30)) (or (or ?v_38 P18) ?v_40)) (or (or ?v_48 P28) ?v_13)) (or (or ?v_4 ?v_22) ?v_46)) (or (or ?v_5 P25) ?v_6)) (or (or P23 P11) ?v_4)) (or (or ?v_8 ?v_11) ?v_7)) (or (or ?v_97 ?v_59) ?v_15)) (or (or ?v_10 ?v_195) ?v_125)) (or (or ?v_9 ?v_16) P18)) (or (or ?v_12 P21) ?v_10)) (or (or ?v_36 ?v_138) ?v_113)) (or (or P22 ?v_12) ?v_127)) (or (or ?v_13 ?v_50) ?v_42)) (or (or ?v_12 ?v_35) ?v_147)) (or (or P21 P13) ?v_31)) (or (or ?v_142 ?v_15) ?v_7)) (or (or ?v_16 ?v_202) ?v_187)) (or (or ?v_29 P3) ?v_28)) (or (or ?v_17 ?v_45) P35)) (or (or ?v_18 ?v_129) ?v_19)) (or (or ?v_20 P31) ?v_121)) (or (or ?v_119 ?v_175) P25)) (or (or ?v_180 P18) ?v_21)) (or (or ?v_68 ?v_159) ?v_23)) (or (or ?v_194 ?v_25) ?v_70)) (or (or ?v_189 ?v_32) ?v_21)) (or (or ?v_39 ?v_62) ?v_26)) (or (or ?v_27 ?v_44) ?v_28)) (or (or ?v_52 P1) ?v_6)) (or (or ?v_29 P4) ?v_30)) (or (or ?v_31 ?v_84) ?v_101)) (or (or P17 ?v_27) ?v_116)) (or (or ?v_4 ?v_32) ?v_67)) (or (or ?v_10 ?v_58) ?v_88)) (or (or ?v_55 ?v_34) ?v_151)) (or (or ?v_35 ?v_86) P10)) (or (or P31 ?v_72) ?v_36)) (or (or P1 ?v_37) ?v_131)) (or (or ?v_89 ?v_105) ?v_39)) (or (or P13 ?v_148) ?v_157)) (or (or P28 P15) ?v_11)) (or (or ?v_42 ?v_166) P3)) (or (or ?v_61 ?v_44) ?v_45)) (or (or ?v_46 ?v_47) ?v_184)) (or (or ?v_13 ?v_49) ?v_120)) (or (or ?v_87 ?v_48) ?v_50)) (or (or ?v_51 P11) P9)) (or (or P16 ?v_66) ?v_107)) (or (or ?v_52 ?v_143) ?v_53)) (or (or ?v_38 P27) ?v_54)) (or (or P3 ?v_29) P27)) (or (or ?v_77 (not ?v_55)) ?v_122)) (or (or ?v_23 ?v_56) ?v_6)) (or (or ?v_57 ?v_13) ?v_58)) (or (or ?v_59 P13) ?v_64)) (or (or ?v_61 P20) ?v_37)) (or (or ?v_51 ?v_76) ?v_21)) (or (or ?v_34 ?v_74) P29)) (or (or ?v_63 ?v_64) ?v_56)) (or (or ?v_65 P29) ?v_73)) (or (or ?v_67 ?v_49) ?v_68)) (or (or P18 ?v_69) ?v_81)) (or (or ?v_117 ?v_45) P30)) (or (or ?v_185 ?v_58) ?v_71)) (or (or ?v_72 ?v_9) ?v_73)) (or (or ?v_114 ?v_2) ?v_3)) (or (or ?v_74 ?v_134) ?v_163)) (or (or P29 ?v_19) ?v_30)) (or (or ?v_52 ?v_90) ?v_75)) (or (or ?v_76 ?v_77) (not ?v_78))) (or (or ?v_48 ?v_79) ?v_80)) (or (or ?v_81 ?v_82) ?v_50)) (or (or ?v_15 P21) ?v_118)) (or (or ?v_16 ?v_48) ?v_5)) (or (or ?v_49 ?v_111) ?v_42)) (or (or ?v_84 ?v_13) P15)) (or (or ?v_51 P34) ?v_1)) (or (or ?v_55 ?v_16) ?v_85)) (or (or ?v_86 ?v_87) ?v_11)) (or (or ?v_21 ?v_100) ?v_79)) (or (or P30 ?v_50) ?v_103)) (or (or ?v_88 P20) ?v_15)) (or (or ?v_52 ?v_42) ?v_158)) (or (or ?v_89 ?v_102) ?v_91)) (or (or ?v_92 ?v_77) ?v_82)) (or (or ?v_141 ?v_106) ?v_93)) (or (or ?v_75 ?v_133) ?v_65)) (or (or ?v_20 ?v_94) ?v_5)) (or (or ?v_47 ?v_88) ?v_156)) (or (or ?v_179 P35) ?v_96)) (or (or ?v_97 ?v_31) ?v_112)) (or (or ?v_99 ?v_168) ?v_139)) (or (or ?v_91 P27) ?v_132)) (or (or ?v_63 ?v_101) P35)) (or (or ?v_88 ?v_102) ?v_29)) (or (or ?v_58 ?v_135) ?v_103)) (or (or ?v_104 ?v_66) P30)) (or (or ?v_68 ?v_7) ?v_140)) (or (or ?v_28 P18) ?v_105)) (or (or ?v_79 ?v_31) ?v_106)) (or (or ?v_104 ?v_107) ?v_46)) (or (or ?v_97 ?v_84) P11)) (or (or ?v_73 ?v_80) ?v_104)) (or (or ?v_108 ?v_63) ?v_109)) (or (or ?v_42 ?v_18) ?v_110)) (or (or ?v_104 ?v_111) ?v_63)) (or (or ?v_112 ?v_113) ?v_115)) (or (or P4 ?v_114) ?v_93)) (or (or ?v_136 ?v_115) ?v_116)) (or (or ?v_41 ?v_70) ?v_37)) (or (or ?v_7 P14) ?v_10)) (or (or ?v_117 ?v_118) ?v_119)) (or (or ?v_66 ?v_78) ?v_18)) (or (or P5 ?v_177) ?v_3)) (or (or ?v_37 ?v_81) ?v_35)) (or (or ?v_86 ?v_170) ?v_121)) (or (or ?v_110 ?v_105) ?v_75)) (or (or ?v_130 ?v_9) ?v_122)) (or (or ?v_110 P25) P24)) (or (or ?v_123 ?v_27) ?v_102)) (or (or ?v_107 P26) ?v_85)) (or (or ?v_123 P16) ?v_124)) (or (or P0 ?v_11) ?v_120)) (or (or P17 ?v_58) ?v_16)) (or (or ?v_85 ?v_125) ?v_38)) (or (or ?v_126 ?v_127) ?v_0)) (or (or ?v_128 ?v_109) ?v_173)) (or (or P23 ?v_30) P38)) (or (or ?v_39 ?v_130) ?v_59)) (or (or P18 P9) ?v_131)) (or (or ?v_172 ?v_114) ?v_63)) (or (or ?v_126 ?v_133) P2)) (or (or ?v_88 ?v_3) ?v_106)) (or (or ?v_31 ?v_62) ?v_153)) (or (or ?v_134 ?v_135) ?v_127)) (or (or ?v_38 ?v_44) ?v_76)) (or (or P5 P29) ?v_56)) (or (or P2 ?v_136) ?v_61)) (or (or ?v_137 ?v_138) ?v_145)) (or (or P6 ?v_146) ?v_139)) (or (or ?v_77 ?v_39) ?v_199)) (or (or P11 ?v_6) ?v_165)) (or (or ?v_32 P15) ?v_140)) (or (or ?v_88 ?v_4) ?v_141)) (or (or ?v_88 ?v_142) P20)) (or (or ?v_56 ?v_143) ?v_1)) (or (or P9 ?v_201) P22)) (or (or ?v_144 ?v_81) ?v_54)) (or (or ?v_145 P20) ?v_104)) (or (or ?v_48 ?v_31) ?v_4)) (or (or ?v_146 ?v_116) ?v_39)) (or (or ?v_147 ?v_86) ?v_92)) (or (or ?v_148 ?v_149) ?v_150)) (or (or ?v_151 ?v_48) ?v_69)) (or (or P33 ?v_108) P17)) (or (or ?v_137 ?v_71) P15)) (or (or P14 ?v_69) P17)) (or (or ?v_118 ?v_152) ?v_109)) (or (or ?v_153 ?v_78) ?v_96)) (or (or ?v_74 ?v_154) ?v_41)) (or (or ?v_36 P35) ?v_135)) (or (or ?v_155 ?v_25) ?v_156)) (or (or P35 ?v_68) ?v_109)) (or (or ?v_139 P1) ?v_87)) (or (or ?v_92 ?v_134) ?v_124)) (or (or P30 ?v_155) P29)) (or (or ?v_70 ?v_72) ?v_157)) (or (or ?v_50 ?v_47) P36)) (or (or ?v_100 ?v_158) ?v_28)) (or (or ?v_137 ?v_42) ?v_111)) (or (or ?v_160 ?v_159) ?v_89)) (or (or P34 ?v_152) P37)) (or (or ?v_74 ?v_97) ?v_80)) (or (or ?v_16 ?v_9) ?v_110)) (or (or ?v_67 ?v_66) ?v_88)) (or (or ?v_162 ?v_160) ?v_161)) (or (or ?v_135 ?v_162) ?v_163)) (or (or ?v_64 ?v_35) ?v_78)) (or (or P17 ?v_143) ?v_61)) (or (or ?v_7 ?v_115) P10)) (or (or ?v_176 ?v_77) ?v_115)) (or (or P31 ?v_112) P16)) (or (or ?v_103 ?v_135) ?v_161)) (or (or ?v_178 ?v_82) ?v_165)) (or (or ?v_15 ?v_128) ?v_71)) (or (or ?v_166 ?v_196) ?v_153)) (or (or ?v_140 ?v_167) ?v_198)) (or (or P36 ?v_61) ?v_1)) (or (or ?v_129 ?v_105) ?v_133)) (or (or ?v_88 ?v_129) ?v_191)) (or (or ?v_30 ?v_118) ?v_25)) (or (or ?v_41 ?v_149) ?v_168)) (or (or ?v_169 ?v_104) ?v_167)) (or (or P29 ?v_16) ?v_67)) (or (or ?v_23 ?v_11) P14)) (or (or ?v_167 ?v_171) ?v_7)) (or (or ?v_19 ?v_56) ?v_148)) (or (or ?v_3 ?v_170) ?v_114)) (or (or ?v_105 ?v_25) ?v_42)) (or (or P11 P38) ?v_23)) (or (or ?v_156 ?v_174) ?v_153)) (or (or ?v_148 ?v_143) ?v_172)) (or (or ?v_173 ?v_2) ?v_134)) (or (or ?v_183 ?v_120) ?v_149)) (or (or P37 ?v_152) ?v_158)) (or (or ?v_174 ?v_121) ?v_45)) (or (or P5 ?v_26) ?v_8)) (or (or ?v_128 ?v_132) ?v_171)) (or (or ?v_144 ?v_29) P34)) (or (or ?v_175 ?v_176) ?v_109)) (or (or ?v_69 ?v_62) ?v_104)) (or (or ?v_186 ?v_177) ?v_193)) (or (or ?v_138 ?v_125) ?v_19)) (or (or ?v_147 ?v_15) ?v_150)) (or (or ?v_178 ?v_36) ?v_115)) (or (or ?v_63 ?v_175) P33)) (or (or ?v_105 ?v_21) P34)) (or (or P35 ?v_43) ?v_34)) (or (or ?v_90 ?v_8) ?v_18)) (or (or P0 ?v_173) ?v_179)) (or (or ?v_107 ?v_74) P12)) (or (or ?v_180 ?v_96) ?v_181)) (or (or ?v_15 P12) ?v_154)) (or (or ?v_19 P25) ?v_87)) (or (or ?v_120 ?v_182) ?v_183)) (or (or ?v_184 ?v_57) P3)) (or (or P0 ?v_21) ?v_130)) (or (or ?v_106 ?v_101) ?v_172)) (or (or P17 ?v_103) ?v_185)) (or (or P20 ?v_74) ?v_119)) (or (or ?v_62 ?v_186) ?v_27)) (or (or ?v_99 ?v_67) P39)) (or (or ?v_160 ?v_3) ?v_127)) (or (or ?v_176 ?v_55) P19)) (or (or ?v_91 ?v_169) ?v_67)) (or (or ?v_157 P1) ?v_117)) (or (or ?v_19 ?v_108) ?v_116)) (or (or ?v_2 ?v_59) P14)) (or (or ?v_190 ?v_31) ?v_74)) (or (or ?v_72 ?v_146) ?v_174)) (or (or P25 ?v_28) ?v_77)) (or (or ?v_113 ?v_200) ?v_116)) (or (or ?v_75 ?v_69) ?v_158)) (or (or ?v_135 P37) ?v_143)) (or (or P7 ?v_37) ?v_161)) (or (or ?v_30 ?v_124) ?v_139)) (or (or ?v_101 ?v_135) ?v_128)) (or (or ?v_150 ?v_7) ?v_49)) (or (or ?v_139 P13) ?v_118)) (or (or ?v_25 ?v_71) P14)) (or (or ?v_30 ?v_45) P16)) (or (or P15 P6) ?v_50)) (or (or ?v_188 ?v_37) ?v_116)) (or (or P39 ?v_189) ?v_158)) (or (or ?v_8 P11) ?v_169)) (or (or ?v_190 ?v_115) ?v_118)) (or (or ?v_59 P5) P8)) (or (or ?v_78 ?v_86) ?v_73)) (or (or ?v_118 ?v_191) ?v_48)) (or (or ?v_187 ?v_145) ?v_192)) (or (or ?v_115 ?v_81) ?v_159)) (or (or ?v_23 P15) P4)) (or (or ?v_37 ?v_20) P11)) (or (or ?v_163 ?v_185) ?v_28)) (or (or ?v_99 ?v_72) P3)) (or (or P36 ?v_84) ?v_6)) (or (or ?v_58 P21) ?v_12)) (or (or ?v_165 ?v_122) ?v_23)) (or (or ?v_45 P13) ?v_47)) (or (or ?v_7 ?v_73) ?v_102)) (or (or ?v_117 ?v_175) ?v_106)) (or (or P14 ?v_118) ?v_12)) (or (or ?v_26 ?v_120) ?v_82)) (or (or ?v_75 ?v_55) ?v_1)) (or (or ?v_34 ?v_159) ?v_160)) (or (or ?v_135 ?v_181) ?v_58)) (or (or ?v_4 P25) ?v_29)) (or (or P36 ?v_57) ?v_34)) (or (or ?v_101 ?v_193) ?v_5)) (or (or ?v_63 P28) P20)) (or (or ?v_114 ?v_194) ?v_144)) (or (or ?v_78 ?v_143) P33)) (or (or ?v_177 ?v_106) ?v_91)) (or (or ?v_58 ?v_116) ?v_19)) (or (or ?v_17 ?v_152) P3)) (or (or ?v_174 ?v_2) P13)) (or (or P11 ?v_8) ?v_21)) (or (or ?v_46 ?v_122) ?v_187)) (or (or ?v_92 ?v_163) ?v_137)) (or (or P20 ?v_92) ?v_132)) (or (or ?v_148 ?v_66) ?v_138)) (or (or P11 ?v_117) ?v_142)) (or (or ?v_46 ?v_140) ?v_70)) (or (or ?v_153 ?v_149) ?v_10)) (or (or P18 P30) ?v_138)) (or (or P32 ?v_104) ?v_5)) (or (or ?v_157 ?v_151) ?v_143)) (or (or ?v_52 ?v_31) ?v_195)) (or (or ?v_41 ?v_43) ?v_142)) (or (or ?v_28 P38) ?v_99)) (or (or P31 P38) ?v_118)) (or (or ?v_1 ?v_109) ?v_79)) (or (or ?v_23 ?v_156) ?v_35)) (or (or ?v_94 P6) ?v_76)) (or (or ?v_40 ?v_99) P4)) (or (or ?v_22 ?v_53) ?v_169)) (or (or ?v_34 P25) ?v_44)) (or (or P2 ?v_120) P38)) (or (or ?v_132 P23) ?v_193)) (or (or ?v_195 ?v_110) ?v_76)) (or (or ?v_196 ?v_137) ?v_16)) (or (or ?v_79 ?v_160) ?v_80)) (or (or ?v_142 P25) ?v_137)) (or (or ?v_197 P10) ?v_0)) (or (or P13 ?v_183) ?v_22)) (or (or ?v_139 ?v_151) ?v_54)) (or (or ?v_9 ?v_126) P3)) (or (or ?v_189 ?v_89) P34)) (or (or ?v_142 P20) ?v_1)) (or (or ?v_197 ?v_13) P1)) (or (or ?v_155 ?v_198) ?v_36)) (or (or ?v_3 ?v_46) ?v_26)) (or (or ?v_127 ?v_103) ?v_111)) (or (or P0 ?v_125) ?v_203)) (or (or ?v_183 ?v_22) ?v_86)) (or (or ?v_7 P27) P0)) (or (or ?v_2 ?v_126) ?v_144)) (or (or ?v_188 ?v_12) ?v_168)) (or (or ?v_110 P13) ?v_81)) (or (or P28 ?v_117) ?v_31)) (or (or P23 ?v_85) ?v_74)) (or (or ?v_94 ?v_89) ?v_49)) (or (or ?v_66 ?v_7) ?v_102)) (or (or ?v_68 ?v_160) ?v_195)) (or (or ?v_136 ?v_34) ?v_66)) (or (or ?v_105 ?v_196) ?v_69)) (or (or ?v_72 P1) ?v_77)) (or (or ?v_133 ?v_159) ?v_194)) (or (or ?v_134 ?v_90) P21)) (or (or ?v_43 ?v_118) ?v_74)) (or (or ?v_23 ?v_66) P2)) (or (or ?v_126 ?v_90) ?v_89)) (or (or ?v_193 ?v_77) ?v_59)) (or (or P13 ?v_29) ?v_161)) (or (or P28 P27) ?v_176)) (or (or ?v_70 ?v_7) ?v_19)) (or (or ?v_159 ?v_42) ?v_56)) (or (or P3 ?v_103) ?v_84)) (or (or P33 ?v_138) ?v_84)) (or (or ?v_116 ?v_164) ?v_125)) (or (or P24 P27) P18)) (or (or P5 ?v_125) P4)) (or (or ?v_40 ?v_140) ?v_49)) (or (or ?v_139 ?v_40) ?v_170)) (or (or ?v_199 P16) ?v_108)) (or (or ?v_178 ?v_158) ?v_168)) (or (or P35 ?v_63) ?v_12)) (or (or P0 P9) ?v_88)) (or (or ?v_122 ?v_196) ?v_200)) (or (or P12 ?v_170) ?v_175)) (or (or ?v_199 ?v_15) ?v_0)) (or (or ?v_123 ?v_171) ?v_193)) (or (or ?v_168 ?v_82) (not ?v_178))) (or (or ?v_129 ?v_39) P13)) (or (or ?v_199 ?v_192) ?v_42)) (or (or P12 ?v_43) ?v_148)) (or (or ?v_89 ?v_99) ?v_68)) (or (or ?v_188 P20) ?v_169)) (or (or ?v_174 ?v_78) ?v_26)) (or (or ?v_141 ?v_186) ?v_106)) (or (or ?v_6 P1) ?v_72)) (or (or ?v_67 ?v_197) ?v_133)) (or (or ?v_130 ?v_8) ?v_103)) (or (or ?v_35 ?v_151) ?v_109)) (or (or P6 P26) ?v_137)) (or (or ?v_93 ?v_70) ?v_13)) (or (or ?v_21 ?v_149) ?v_65)) (or (or ?v_94 P5) ?v_107)) (or (or P32 ?v_144) P13)) (or (or ?v_152 ?v_198) ?v_156)) (or (or ?v_26 ?v_130) P16)) (or (or P38 ?v_76) ?v_111)) (or (or ?v_191 ?v_80) P25)) (or (or ?v_198 ?v_187) ?v_3)) (or (or ?v_50 ?v_87) ?v_149)) (or (or ?v_195 ?v_190) ?v_137)) (or (or ?v_201 ?v_91) ?v_138)) (or (or ?v_156 P27) ?v_93)) (or (or ?v_201 ?v_115) ?v_188)) (or (or ?v_50 ?v_151) ?v_175)) (or (or P34 ?v_48) ?v_107)) (or (or ?v_40 ?v_82) ?v_165)) (or (or ?v_159 ?v_18) ?v_139)) (or (or ?v_149 ?v_103) ?v_92)) (or (or ?v_51 ?v_45) ?v_133)) (or (or P0 ?v_117) P35)) (or (or ?v_189 ?v_121) ?v_82)) (or (or ?v_37 ?v_165) ?v_103)) (or (or ?v_145 P35) ?v_82)) (or (or ?v_56 ?v_42) P2)) (or (or ?v_174 ?v_8) ?v_172)) (or (or ?v_110 ?v_7) ?v_94)) (or (or ?v_109 ?v_193) ?v_27)) (or (or ?v_72 P27) P21)) (or (or ?v_142 P9) ?v_202)) (or (or ?v_35 ?v_39) ?v_42)) (or (or ?v_167 ?v_122) ?v_195)) (or (or ?v_67 P35) ?v_172)) (or (or ?v_101 P8) P15)) (or (or P19 ?v_94) ?v_133)) (or (or P22 ?v_203) ?v_44)) (or (or ?v_115 ?v_91) ?v_12)) (or (or ?v_104 ?v_203) ?v_187)) (or (or ?v_131 ?v_152) ?v_30)) (or (or ?v_89 ?v_27) P0)) (or (or ?v_69 ?v_157) ?v_91)) (or (or ?v_28 ?v_117) ?v_160)) (or (or ?v_68 ?v_72) ?v_107)) (or (or ?v_158 ?v_120) P39)) (or (or ?v_43 P8) ?v_163)) (or (or ?v_4 ?v_77) ?v_89)) (or (or P38 P28) ?v_159)) (or (or ?v_52 P32) ?v_31)) (or (or ?v_200 P22) ?v_27)) (or (or ?v_13 ?v_88) ?v_51)) (or (or P4 ?v_182) ?v_13)) (or (or ?v_163 ?v_29) ?v_168)) (or (or ?v_56 ?v_47) P37)) (or (or ?v_188 ?v_124) ?v_51)) (or (or ?v_192 ?v_53) P32)) (or (or P8 ?v_11) ?v_118)) (or (or ?v_202 ?v_11) ?v_87)) (or (or ?v_41 P33) ?v_73)) (or (or P17 ?v_199) ?v_197)) (or (or ?v_41 ?v_164) ?v_149)) (or (or ?v_13 ?v_131) ?v_42)) (or (or ?v_37 ?v_77) ?v_100)) (or (or P37 ?v_190) ?v_61)) (or (or ?v_132 ?v_97) P21)) (or (or ?v_19 P31) P35)) (or (or ?v_80 ?v_57) ?v_141)) (or (or ?v_161 ?v_69) P22)) (or (or ?v_175 ?v_132) ?v_186)) (or (or P7 ?v_23) ?v_190)) (or (or ?v_32 ?v_20) ?v_150)) (or (or ?v_135 ?v_6) ?v_178)) (or (or ?v_50 ?v_8) ?v_181)) (or (or ?v_37 ?v_164) ?v_146)) (or (or ?v_129 ?v_9) ?v_87)) (or (or ?v_66 ?v_71) ?v_184)) (or (or ?v_99 ?v_84) ?v_26)) (or (or ?v_20 ?v_100) ?v_188)) (or (or ?v_136 P37) ?v_8)) (or (or ?v_34 ?v_31) P14)) (or (or ?v_199 ?v_153) ?v_188)) (or (or ?v_129 ?v_6) ?v_128)) (or (or ?v_102 ?v_3) ?v_43)) (or (or ?v_191 ?v_45) ?v_93)) (or (or ?v_15 ?v_184) ?v_190)) (or (or ?v_121 ?v_201) ?v_80)) (or (or P2 ?v_26) ?v_157)) (or (or ?v_74 ?v_86) ?v_200)) (or (or ?v_169 ?v_70) ?v_165)) (or (or P21 ?v_131) P9)) (or (or ?v_178 ?v_27) ?v_126)) (or (or ?v_84 ?v_140) P14)) (or (or ?v_101 ?v_66) ?v_156)) (or (or ?v_160 ?v_119) ?v_74)) (or (or ?v_115 ?v_92) ?v_179))))))))))))))))))))))))))))))))
(check-sat)
(exit)
